NAME 
OBJSENSE MAX
ROWS
 N  OBJ
 L  packing[0]
 L  packing[1]
 L  packing[2]
 L  packing[3]
 L  packing[4]
 L  packing[5]
 L  packing[6]
 L  packing[7]
 L  packing[8]
 L  packing[9]
 L  packing[10]
 L  packing[11]
 L  packing[12]
 L  packing[13]
 L  packing[14]
 L  packing[15]
 L  packing[16]
 L  packing[17]
 L  packing[18]
 L  packing[19]
 L  packing[20]
 L  packing[21]
 L  packing[22]
 L  packing[23]
 L  packing[24]
 L  packing[25]
 L  packing[26]
 L  packing[27]
 L  packing[28]
 L  packing[29]
 L  packing[30]
 L  packing[31]
 L  packing[32]
 L  packing[33]
 L  packing[34]
 L  packing[35]
 L  packing[36]
 L  packing[37]
 L  packing[38]
 L  packing[39]
 L  packing[40]
 L  packing[41]
 L  packing[42]
 L  packing[43]
 L  packing[44]
 L  packing[45]
 L  packing[46]
 L  packing[47]
 L  packing[48]
 L  packing[49]
 L  R59     
COLUMNS
    MARKER    'MARKER'                 'INTORG'
    x[1]      OBJ       90
    x[1]      packing[0]  55
    x[1]      packing[1]  103
    x[1]      packing[2]  126
    x[1]      packing[6]  195
    x[1]      packing[7]  149
    x[1]      packing[8]  117
    x[1]      packing[9]  10
    x[1]      packing[11]  7
    x[1]      packing[12]  184
    x[1]      packing[13]  164
    x[1]      packing[14]  22
    x[1]      packing[15]  172
    x[1]      packing[16]  123
    x[1]      packing[17]  142
    x[1]      packing[20]  195
    x[1]      packing[21]  199
    x[1]      packing[22]  90
    x[1]      packing[23]  13
    x[1]      packing[26]  5
    x[1]      packing[28]  75
    x[1]      packing[29]  63
    x[1]      packing[30]  186
    x[1]      packing[32]  182
    x[1]      packing[35]  123
    x[1]      packing[37]  107
    x[1]      packing[38]  20
    x[1]      packing[39]  75
    x[1]      packing[40]  32
    x[1]      packing[43]  157
    x[1]      packing[45]  13
    x[1]      packing[46]  147
    x[1]      packing[49]  111
    x[2]      OBJ       14
    x[2]      packing[0]  195
    x[2]      packing[1]  82
    x[2]      packing[2]  155
    x[2]      packing[3]  151
    x[2]      packing[4]  24
    x[2]      packing[5]  14
    x[2]      packing[6]  154
    x[2]      packing[7]  178
    x[2]      packing[8]  47
    x[2]      packing[10]  109
    x[2]      packing[12]  62
    x[2]      packing[13]  101
    x[2]      packing[14]  1
    x[2]      packing[15]  180
    x[2]      packing[16]  88
    x[2]      packing[18]  123
    x[2]      packing[20]  164
    x[2]      packing[22]  31
    x[2]      packing[23]  157
    x[2]      packing[24]  93
    x[2]      packing[25]  188
    x[2]      packing[26]  142
    x[2]      packing[27]  179
    x[2]      packing[28]  6
    x[2]      packing[29]  141
    x[2]      packing[30]  188
    x[2]      packing[31]  161
    x[2]      packing[32]  132
    x[2]      packing[34]  151
    x[2]      packing[35]  55
    x[2]      packing[37]  162
    x[2]      packing[38]  160
    x[2]      packing[39]  89
    x[2]      packing[40]  76
    x[2]      packing[41]  56
    x[2]      packing[42]  143
    x[2]      packing[43]  95
    x[2]      packing[44]  79
    x[2]      packing[45]  139
    x[2]      packing[47]  1
    x[2]      packing[48]  115
    x[2]      packing[49]  172
    x[3]      OBJ       133
    x[3]      packing[0]  41
    x[3]      packing[1]  113
    x[3]      packing[3]  32
    x[3]      packing[4]  144
    x[3]      packing[5]  164
    x[3]      packing[6]  26
    x[3]      packing[7]  38
    x[3]      packing[8]  181
    x[3]      packing[9]  104
    x[3]      packing[10]  192
    x[3]      packing[11]  117
    x[3]      packing[12]  47
    x[3]      packing[13]  168
    x[3]      packing[15]  50
    x[3]      packing[16]  91
    x[3]      packing[17]  60
    x[3]      packing[18]  16
    x[3]      packing[20]  198
    x[3]      packing[21]  8
    x[3]      packing[22]  54
    x[3]      packing[24]  178
    x[3]      packing[26]  120
    x[3]      packing[27]  113
    x[3]      packing[28]  44
    x[3]      packing[29]  175
    x[3]      packing[31]  165
    x[3]      packing[33]  191
    x[3]      packing[35]  37
    x[3]      packing[36]  126
    x[3]      packing[37]  165
    x[3]      packing[38]  7
    x[3]      packing[39]  10
    x[3]      packing[40]  29
    x[3]      packing[42]  192
    x[3]      packing[43]  109
    x[3]      packing[45]  26
    x[3]      packing[46]  98
    x[3]      packing[47]  160
    x[3]      packing[48]  174
    x[3]      packing[49]  1
    x[3]      R59       1
    x[4]      OBJ       48
    x[4]      packing[1]  123
    x[4]      packing[2]  138
    x[4]      packing[3]  43
    x[4]      packing[4]  14
    x[4]      packing[5]  178
    x[4]      packing[6]  126
    x[4]      packing[7]  179
    x[4]      packing[8]  15
    x[4]      packing[9]  55
    x[4]      packing[11]  48
    x[4]      packing[12]  48
    x[4]      packing[13]  94
    x[4]      packing[14]  101
    x[4]      packing[15]  101
    x[4]      packing[16]  167
    x[4]      packing[17]  21
    x[4]      packing[18]  28
    x[4]      packing[20]  33
    x[4]      packing[21]  40
    x[4]      packing[22]  3
    x[4]      packing[23]  148
    x[4]      packing[24]  55
    x[4]      packing[25]  72
    x[4]      packing[28]  50
    x[4]      packing[29]  140
    x[4]      packing[30]  166
    x[4]      packing[31]  87
    x[4]      packing[32]  24
    x[4]      packing[35]  35
    x[4]      packing[36]  144
    x[4]      packing[37]  186
    x[4]      packing[38]  118
    x[4]      packing[40]  46
    x[4]      packing[41]  158
    x[4]      packing[42]  177
    x[4]      packing[43]  69
    x[4]      packing[44]  3
    x[4]      packing[45]  23
    x[4]      packing[48]  138
    x[4]      packing[49]  155
    x[5]      OBJ       189
    x[5]      packing[1]  120
    x[5]      packing[2]  6
    x[5]      packing[4]  134
    x[5]      packing[5]  90
    x[5]      packing[6]  121
    x[5]      packing[8]  179
    x[5]      packing[9]  175
    x[5]      packing[10]  53
    x[5]      packing[11]  142
    x[5]      packing[12]  103
    x[5]      packing[13]  94
    x[5]      packing[14]  117
    x[5]      packing[17]  98
    x[5]      packing[20]  173
    x[5]      packing[21]  152
    x[5]      packing[22]  40
    x[5]      packing[23]  152
    x[5]      packing[24]  150
    x[5]      packing[25]  71
    x[5]      packing[26]  118
    x[5]      packing[27]  174
    x[5]      packing[28]  167
    x[5]      packing[30]  28
    x[5]      packing[31]  13
    x[5]      packing[32]  158
    x[5]      packing[33]  2
    x[5]      packing[36]  193
    x[5]      packing[37]  7
    x[5]      packing[39]  31
    x[5]      packing[41]  30
    x[5]      packing[42]  38
    x[5]      packing[44]  163
    x[5]      packing[47]  69
    x[5]      packing[48]  88
    x[5]      packing[49]  122
    x[5]      R59       1
    x[6]      OBJ       47
    x[6]      packing[0]  4
    x[6]      packing[1]  178
    x[6]      packing[2]  156
    x[6]      packing[4]  81
    x[6]      packing[6]  73
    x[6]      packing[7]  178
    x[6]      packing[8]  31
    x[6]      packing[10]  149
    x[6]      packing[11]  2
    x[6]      packing[13]  143
    x[6]      packing[14]  43
    x[6]      packing[15]  96
    x[6]      packing[16]  176
    x[6]      packing[19]  5
    x[6]      packing[20]  109
    x[6]      packing[21]  173
    x[6]      packing[23]  6
    x[6]      packing[24]  41
    x[6]      packing[25]  170
    x[6]      packing[27]  131
    x[6]      packing[28]  87
    x[6]      packing[29]  180
    x[6]      packing[30]  108
    x[6]      packing[31]  45
    x[6]      packing[34]  51
    x[6]      packing[35]  104
    x[6]      packing[36]  46
    x[6]      packing[37]  150
    x[6]      packing[38]  163
    x[6]      packing[39]  119
    x[6]      packing[40]  162
    x[6]      packing[41]  123
    x[6]      packing[42]  159
    x[6]      packing[43]  61
    x[6]      packing[44]  29
    x[6]      packing[45]  131
    x[6]      packing[46]  27
    x[6]      packing[48]  68
    x[6]      packing[49]  75
    x[7]      OBJ       92
    x[7]      packing[0]  170
    x[7]      packing[1]  11
    x[7]      packing[2]  120
    x[7]      packing[3]  101
    x[7]      packing[4]  94
    x[7]      packing[5]  188
    x[7]      packing[6]  82
    x[7]      packing[10]  173
    x[7]      packing[11]  189
    x[7]      packing[14]  22
    x[7]      packing[15]  102
    x[7]      packing[16]  158
    x[7]      packing[17]  2
    x[7]      packing[18]  102
    x[7]      packing[20]  108
    x[7]      packing[22]  109
    x[7]      packing[23]  82
    x[7]      packing[24]  141
    x[7]      packing[26]  5
    x[7]      packing[27]  33
    x[7]      packing[28]  19
    x[7]      packing[29]  46
    x[7]      packing[30]  121
    x[7]      packing[31]  35
    x[7]      packing[32]  62
    x[7]      packing[33]  86
    x[7]      packing[34]  158
    x[7]      packing[35]  43
    x[7]      packing[37]  35
    x[7]      packing[38]  189
    x[7]      packing[40]  18
    x[7]      packing[41]  78
    x[7]      packing[42]  94
    x[7]      packing[43]  130
    x[7]      packing[44]  87
    x[7]      packing[46]  123
    x[7]      packing[47]  58
    x[8]      OBJ       78
    x[8]      packing[1]  136
    x[8]      packing[2]  161
    x[8]      packing[3]  133
    x[8]      packing[4]  31
    x[8]      packing[5]  66
    x[8]      packing[8]  186
    x[8]      packing[9]  117
    x[8]      packing[10]  66
    x[8]      packing[11]  73
    x[8]      packing[12]  194
    x[8]      packing[14]  184
    x[8]      packing[15]  99
    x[8]      packing[16]  96
    x[8]      packing[19]  134
    x[8]      packing[20]  112
    x[8]      packing[21]  118
    x[8]      packing[22]  168
    x[8]      packing[23]  26
    x[8]      packing[24]  66
    x[8]      packing[25]  77
    x[8]      packing[26]  106
    x[8]      packing[27]  85
    x[8]      packing[28]  53
    x[8]      packing[29]  81
    x[8]      packing[30]  3
    x[8]      packing[31]  112
    x[8]      packing[32]  134
    x[8]      packing[34]  42
    x[8]      packing[35]  110
    x[8]      packing[36]  187
    x[8]      packing[37]  178
    x[8]      packing[39]  111
    x[8]      packing[40]  109
    x[8]      packing[42]  38
    x[8]      packing[43]  8
    x[8]      packing[44]  1
    x[8]      packing[45]  190
    x[8]      packing[46]  57
    x[8]      packing[47]  160
    x[8]      packing[48]  28
    x[8]      packing[49]  91
    x[9]      OBJ       86
    x[9]      packing[0]  67
    x[9]      packing[1]  123
    x[9]      packing[2]  91
    x[9]      packing[3]  109
    x[9]      packing[6]  139
    x[9]      packing[7]  143
    x[9]      packing[10]  189
    x[9]      packing[11]  22
    x[9]      packing[12]  50
    x[9]      packing[13]  38
    x[9]      packing[14]  72
    x[9]      packing[15]  31
    x[9]      packing[16]  49
    x[9]      packing[18]  91
    x[9]      packing[19]  158
    x[9]      packing[20]  197
    x[9]      packing[21]  8
    x[9]      packing[22]  101
    x[9]      packing[23]  130
    x[9]      packing[24]  139
    x[9]      packing[26]  27
    x[9]      packing[27]  28
    x[9]      packing[29]  94
    x[9]      packing[30]  12
    x[9]      packing[31]  19
    x[9]      packing[32]  11
    x[9]      packing[33]  188
    x[9]      packing[36]  164
    x[9]      packing[37]  73
    x[9]      packing[38]  73
    x[9]      packing[39]  155
    x[9]      packing[40]  142
    x[9]      packing[41]  135
    x[9]      packing[42]  187
    x[9]      packing[43]  56
    x[9]      packing[46]  167
    x[9]      packing[47]  154
    x[9]      packing[48]  121
    x[9]      packing[49]  101
    x[9]      R59       1
    x[10]     OBJ       10
    x[10]     packing[0]  6
    x[10]     packing[1]  109
    x[10]     packing[2]  111
    x[10]     packing[4]  56
    x[10]     packing[5]  131
    x[10]     packing[6]  106
    x[10]     packing[7]  30
    x[10]     packing[9]  114
    x[10]     packing[10]  165
    x[10]     packing[11]  196
    x[10]     packing[12]  177
    x[10]     packing[14]  134
    x[10]     packing[15]  168
    x[10]     packing[16]  124
    x[10]     packing[18]  196
    x[10]     packing[19]  185
    x[10]     packing[20]  172
    x[10]     packing[22]  63
    x[10]     packing[23]  137
    x[10]     packing[24]  179
    x[10]     packing[25]  40
    x[10]     packing[26]  153
    x[10]     packing[29]  178
    x[10]     packing[30]  87
    x[10]     packing[31]  168
    x[10]     packing[32]  135
    x[10]     packing[33]  199
    x[10]     packing[35]  105
    x[10]     packing[36]  81
    x[10]     packing[37]  83
    x[10]     packing[39]  141
    x[10]     packing[41]  139
    x[10]     packing[43]  10
    x[10]     packing[45]  186
    x[10]     packing[46]  29
    x[10]     packing[47]  92
    x[10]     packing[48]  94
    x[11]     OBJ       161
    x[11]     packing[0]  149
    x[11]     packing[2]  198
    x[11]     packing[3]  112
    x[11]     packing[4]  76
    x[11]     packing[7]  69
    x[11]     packing[8]  142
    x[11]     packing[9]  38
    x[11]     packing[10]  139
    x[11]     packing[11]  103
    x[11]     packing[13]  142
    x[11]     packing[14]  139
    x[11]     packing[16]  80
    x[11]     packing[17]  34
    x[11]     packing[18]  80
    x[11]     packing[19]  28
    x[11]     packing[21]  100
    x[11]     packing[22]  187
    x[11]     packing[24]  150
    x[11]     packing[25]  114
    x[11]     packing[26]  62
    x[11]     packing[27]  97
    x[11]     packing[28]  69
    x[11]     packing[29]  150
    x[11]     packing[30]  47
    x[11]     packing[31]  88
    x[11]     packing[32]  199
    x[11]     packing[33]  186
    x[11]     packing[34]  182
    x[11]     packing[36]  194
    x[11]     packing[38]  8
    x[11]     packing[39]  127
    x[11]     packing[40]  5
    x[11]     packing[41]  68
    x[11]     packing[42]  55
    x[11]     packing[44]  199
    x[11]     packing[45]  98
    x[11]     packing[46]  193
    x[11]     packing[47]  71
    x[11]     packing[48]  150
    x[11]     R59       1
    x[12]     OBJ       108
    x[12]     packing[1]  162
    x[12]     packing[3]  20
    x[12]     packing[4]  15
    x[12]     packing[5]  31
    x[12]     packing[7]  99
    x[12]     packing[8]  175
    x[12]     packing[9]  184
    x[12]     packing[10]  12
    x[12]     packing[11]  100
    x[12]     packing[12]  12
    x[12]     packing[13]  83
    x[12]     packing[15]  73
    x[12]     packing[17]  52
    x[12]     packing[18]  131
    x[12]     packing[19]  66
    x[12]     packing[20]  132
    x[12]     packing[21]  116
    x[12]     packing[22]  11
    x[12]     packing[23]  88
    x[12]     packing[27]  139
    x[12]     packing[28]  62
    x[12]     packing[29]  61
    x[12]     packing[30]  1
    x[12]     packing[31]  21
    x[12]     packing[32]  95
    x[12]     packing[34]  85
    x[12]     packing[35]  130
    x[12]     packing[36]  191
    x[12]     packing[37]  104
    x[12]     packing[39]  30
    x[12]     packing[40]  108
    x[12]     packing[41]  30
    x[12]     packing[42]  11
    x[12]     packing[43]  51
    x[12]     packing[44]  50
    x[12]     packing[45]  24
    x[12]     packing[46]  133
    x[12]     packing[47]  143
    x[12]     packing[48]  147
    x[13]     OBJ       22
    x[13]     packing[0]  116
    x[13]     packing[1]  195
    x[13]     packing[3]  150
    x[13]     packing[4]  162
    x[13]     packing[7]  174
    x[13]     packing[8]  37
    x[13]     packing[9]  90
    x[13]     packing[10]  101
    x[13]     packing[12]  1
    x[13]     packing[13]  47
    x[13]     packing[14]  142
    x[13]     packing[15]  31
    x[13]     packing[17]  93
    x[13]     packing[18]  27
    x[13]     packing[19]  136
    x[13]     packing[21]  102
    x[13]     packing[22]  68
    x[13]     packing[24]  27
    x[13]     packing[25]  188
    x[13]     packing[26]  24
    x[13]     packing[29]  74
    x[13]     packing[31]  167
    x[13]     packing[33]  147
    x[13]     packing[34]  110
    x[13]     packing[36]  34
    x[13]     packing[37]  197
    x[13]     packing[38]  7
    x[13]     packing[39]  18
    x[13]     packing[40]  195
    x[13]     packing[42]  33
    x[13]     packing[44]  156
    x[13]     packing[46]  71
    x[13]     packing[47]  172
    x[13]     packing[48]  18
    x[14]     OBJ       178
    x[14]     packing[0]  87
    x[14]     packing[1]  4
    x[14]     packing[2]  25
    x[14]     packing[5]  181
    x[14]     packing[7]  125
    x[14]     packing[8]  53
    x[14]     packing[10]  160
    x[14]     packing[11]  145
    x[14]     packing[13]  98
    x[14]     packing[14]  127
    x[14]     packing[15]  103
    x[14]     packing[16]  93
    x[14]     packing[17]  121
    x[14]     packing[18]  69
    x[14]     packing[19]  11
    x[14]     packing[20]  2
    x[14]     packing[22]  189
    x[14]     packing[23]  183
    x[14]     packing[25]  93
    x[14]     packing[26]  50
    x[14]     packing[28]  71
    x[14]     packing[29]  172
    x[14]     packing[30]  164
    x[14]     packing[31]  170
    x[14]     packing[33]  58
    x[14]     packing[34]  154
    x[14]     packing[35]  129
    x[14]     packing[36]  131
    x[14]     packing[37]  84
    x[14]     packing[39]  106
    x[14]     packing[40]  185
    x[14]     packing[43]  151
    x[14]     packing[45]  173
    x[14]     packing[46]  4
    x[14]     packing[48]  159
    x[14]     packing[49]  116
    x[14]     R59       1
    x[15]     OBJ       152
    x[15]     packing[0]  185
    x[15]     packing[1]  163
    x[15]     packing[2]  115
    x[15]     packing[3]  197
    x[15]     packing[4]  152
    x[15]     packing[5]  22
    x[15]     packing[6]  91
    x[15]     packing[7]  18
    x[15]     packing[8]  177
    x[15]     packing[10]  95
    x[15]     packing[11]  194
    x[15]     packing[13]  16
    x[15]     packing[14]  50
    x[15]     packing[15]  99
    x[15]     packing[16]  128
    x[15]     packing[18]  193
    x[15]     packing[20]  114
    x[15]     packing[21]  123
    x[15]     packing[22]  97
    x[15]     packing[23]  78
    x[15]     packing[24]  69
    x[15]     packing[26]  83
    x[15]     packing[27]  34
    x[15]     packing[28]  93
    x[15]     packing[29]  174
    x[15]     packing[30]  49
    x[15]     packing[31]  34
    x[15]     packing[32]  54
    x[15]     packing[33]  130
    x[15]     packing[34]  165
    x[15]     packing[35]  54
    x[15]     packing[36]  10
    x[15]     packing[38]  58
    x[15]     packing[41]  38
    x[15]     packing[42]  184
    x[15]     packing[43]  186
    x[15]     packing[44]  166
    x[15]     packing[45]  100
    x[15]     packing[46]  166
    x[15]     packing[47]  10
    x[15]     packing[48]  190
    x[15]     packing[49]  188
    x[16]     OBJ       118
    x[16]     packing[0]  37
    x[16]     packing[2]  49
    x[16]     packing[3]  53
    x[16]     packing[4]  29
    x[16]     packing[5]  81
    x[16]     packing[6]  21
    x[16]     packing[7]  111
    x[16]     packing[8]  131
    x[16]     packing[9]  134
    x[16]     packing[10]  21
    x[16]     packing[11]  51
    x[16]     packing[15]  22
    x[16]     packing[16]  92
    x[16]     packing[18]  114
    x[16]     packing[20]  172
    x[16]     packing[23]  151
    x[16]     packing[24]  162
    x[16]     packing[25]  103
    x[16]     packing[26]  2
    x[16]     packing[29]  69
    x[16]     packing[30]  188
    x[16]     packing[31]  69
    x[16]     packing[32]  141
    x[16]     packing[33]  151
    x[16]     packing[34]  81
    x[16]     packing[35]  195
    x[16]     packing[36]  135
    x[16]     packing[37]  116
    x[16]     packing[38]  64
    x[16]     packing[39]  38
    x[16]     packing[40]  192
    x[16]     packing[41]  156
    x[16]     packing[42]  164
    x[16]     packing[43]  169
    x[16]     packing[44]  155
    x[16]     packing[45]  126
    x[16]     packing[46]  148
    x[16]     packing[47]  133
    x[16]     packing[49]  174
    x[16]     R59       1
    x[17]     OBJ       142
    x[17]     packing[0]  150
    x[17]     packing[1]  20
    x[17]     packing[2]  72
    x[17]     packing[3]  155
    x[17]     packing[4]  42
    x[17]     packing[5]  176
    x[17]     packing[7]  158
    x[17]     packing[8]  147
    x[17]     packing[9]  100
    x[17]     packing[10]  26
    x[17]     packing[11]  33
    x[17]     packing[14]  49
    x[17]     packing[15]  58
    x[17]     packing[16]  180
    x[17]     packing[20]  10
    x[17]     packing[21]  50
    x[17]     packing[22]  110
    x[17]     packing[23]  95
    x[17]     packing[24]  122
    x[17]     packing[25]  40
    x[17]     packing[26]  41
    x[17]     packing[27]  137
    x[17]     packing[28]  1
    x[17]     packing[29]  148
    x[17]     packing[30]  4
    x[17]     packing[32]  85
    x[17]     packing[34]  159
    x[17]     packing[36]  43
    x[17]     packing[41]  154
    x[17]     packing[42]  10
    x[17]     packing[43]  114
    x[17]     packing[44]  5
    x[17]     packing[45]  177
    x[17]     packing[46]  162
    x[17]     packing[47]  35
    x[17]     packing[48]  28
    x[17]     R59       1
    x[18]     OBJ       50
    x[18]     packing[0]  100
    x[18]     packing[1]  199
    x[18]     packing[3]  59
    x[18]     packing[4]  43
    x[18]     packing[5]  16
    x[18]     packing[7]  199
    x[18]     packing[8]  189
    x[18]     packing[9]  188
    x[18]     packing[11]  15
    x[18]     packing[14]  192
    x[18]     packing[16]  35
    x[18]     packing[17]  112
    x[18]     packing[18]  163
    x[18]     packing[19]  160
    x[18]     packing[20]  199
    x[18]     packing[21]  112
    x[18]     packing[24]  122
    x[18]     packing[25]  125
    x[18]     packing[27]  143
    x[18]     packing[28]  127
    x[18]     packing[29]  185
    x[18]     packing[30]  165
    x[18]     packing[32]  88
    x[18]     packing[35]  185
    x[18]     packing[36]  25
    x[18]     packing[37]  99
    x[18]     packing[38]  22
    x[18]     packing[39]  120
    x[18]     packing[40]  105
    x[18]     packing[41]  114
    x[18]     packing[42]  140
    x[18]     packing[45]  194
    x[18]     packing[46]  102
    x[18]     packing[47]  49
    x[18]     packing[48]  64
    x[18]     packing[49]  60
    x[19]     OBJ       69
    x[19]     packing[1]  96
    x[19]     packing[2]  118
    x[19]     packing[3]  31
    x[19]     packing[4]  126
    x[19]     packing[5]  88
    x[19]     packing[6]  66
    x[19]     packing[7]  103
    x[19]     packing[8]  160
    x[19]     packing[9]  147
    x[19]     packing[10]  48
    x[19]     packing[11]  3
    x[19]     packing[12]  4
    x[19]     packing[15]  49
    x[19]     packing[17]  199
    x[19]     packing[20]  58
    x[19]     packing[21]  54
    x[19]     packing[22]  167
    x[19]     packing[23]  172
    x[19]     packing[26]  182
    x[19]     packing[29]  111
    x[19]     packing[31]  107
    x[19]     packing[32]  188
    x[19]     packing[33]  129
    x[19]     packing[34]  164
    x[19]     packing[35]  95
    x[19]     packing[36]  66
    x[19]     packing[38]  13
    x[19]     packing[39]  100
    x[19]     packing[40]  147
    x[19]     packing[43]  59
    x[19]     packing[44]  18
    x[19]     packing[45]  64
    x[19]     packing[47]  77
    x[19]     packing[48]  81
    x[19]     packing[49]  68
    x[20]     OBJ       38
    x[20]     packing[0]  178
    x[20]     packing[1]  48
    x[20]     packing[2]  24
    x[20]     packing[3]  123
    x[20]     packing[4]  133
    x[20]     packing[5]  142
    x[20]     packing[6]  3
    x[20]     packing[8]  59
    x[20]     packing[9]  187
    x[20]     packing[11]  82
    x[20]     packing[12]  199
    x[20]     packing[13]  120
    x[20]     packing[14]  80
    x[20]     packing[15]  9
    x[20]     packing[16]  148
    x[20]     packing[18]  40
    x[20]     packing[19]  163
    x[20]     packing[20]  47
    x[20]     packing[21]  113
    x[20]     packing[22]  9
    x[20]     packing[23]  184
    x[20]     packing[25]  101
    x[20]     packing[31]  2
    x[20]     packing[33]  98
    x[20]     packing[35]  114
    x[20]     packing[36]  61
    x[20]     packing[38]  72
    x[20]     packing[39]  163
    x[20]     packing[40]  36
    x[20]     packing[41]  174
    x[20]     packing[42]  101
    x[20]     packing[44]  103
    x[20]     packing[45]  60
    x[20]     packing[47]  160
    x[20]     packing[48]  57
    x[20]     packing[49]  127
    MARKER    'MARKER'                 'INTEND'
RHS
    RHS1      packing[0]  770
    RHS1      packing[1]  993
    RHS1      packing[2]  833
    RHS1      packing[3]  735
    RHS1      packing[4]  678
    RHS1      packing[5]  784
    RHS1      packing[6]  602
    RHS1      packing[7]  976
    RHS1      packing[8]  1013
    RHS1      packing[9]  822
    RHS1      packing[10]  849
    RHS1      packing[11]  761
    RHS1      packing[12]  541
    RHS1      packing[13]  654
    RHS1      packing[14]  738
    RHS1      packing[15]  722
    RHS1      packing[16]  914
    RHS1      packing[17]  467
    RHS1      packing[18]  687
    RHS1      packing[19]  523
    RHS1      packing[20]  1098
    RHS1      packing[21]  734
    RHS1      packing[22]  749
    RHS1      packing[23]  901
    RHS1      packing[24]  847
    RHS1      packing[25]  691
    RHS1      packing[26]  560
    RHS1      packing[27]  647
    RHS1      packing[28]  462
    RHS1      packing[29]  1121
    RHS1      packing[30]  759
    RHS1      packing[31]  732
    RHS1      packing[32]  844
    RHS1      packing[33]  783
    RHS1      packing[34]  751
    RHS1      packing[35]  757
    RHS1      packing[36]  916
    RHS1      packing[37]  873
    RHS1      packing[38]  487
    RHS1      packing[39]  717
    RHS1      packing[40]  794
    RHS1      packing[41]  727
    RHS1      packing[42]  863
    RHS1      packing[43]  713
    RHS1      packing[44]  607
    RHS1      packing[45]  862
    RHS1      packing[46]  814
    RHS1      packing[47]  772
    RHS1      packing[48]  860
    RHS1      packing[49]  781
    RHS1      R59       6
BOUNDS
 BV BND1      x[1]    
 BV BND1      x[2]    
 BV BND1      x[3]    
 BV BND1      x[4]    
 BV BND1      x[5]    
 BV BND1      x[6]    
 BV BND1      x[7]    
 BV BND1      x[8]    
 BV BND1      x[9]    
 BV BND1      x[10]   
 BV BND1      x[11]   
 BV BND1      x[12]   
 BV BND1      x[13]   
 BV BND1      x[14]   
 BV BND1      x[15]   
 BV BND1      x[16]   
 BV BND1      x[17]   
 BV BND1      x[18]   
 BV BND1      x[19]   
 BV BND1      x[20]   
ENDATA
